sat
(
  (define-fun VM1Type () Int
    0)
  (define-fun C1_VM3 () Int
    0)
  (define-fun C2_VM1 () Int
    0)
  (define-fun StorageProv1 () Int
    141001)
  (define-fun C1_VM5 () Int
    0)
  (define-fun MemProv4 () Int
    6750)
  (define-fun C3_VM3 () Int
    0)
  (define-fun C4_VM4 () Int
    1)
  (define-fun C5_VM5 () Int
    1)
  (define-fun ProcProv5 () Int
    3600)
  (define-fun C3_VM5 () Int
    0)
  (define-fun C4_VM1 () Int
    0)
  (define-fun C2_VM2 () Int
    0)
  (define-fun MemProv1 () Int
    6749)
  (define-fun PriceProv4 () Int
    480)
  (define-fun VM4Type () Int
    10)
  (define-fun C4_VM3 () Int
    0)
  (define-fun ProcProv3 () Int
    899)
  (define-fun C4_VM5 () Int
    0)
  (define-fun ProcProv2 () Int
    3600)
  (define-fun MemProv3 () Int
    28351)
  (define-fun C2_VM5 () Int
    1)
  (define-fun PriceProv1 () Int
    0)
  (define-fun C1_VM4 () Int
    0)
  (define-fun C1_VM2 () Int
    1)
  (define-fun ProcProv4 () Int
    3600)
  (define-fun MemProv2 () Int
    6750)
  (define-fun VM2Type () Int
    10)
  (define-fun MemProv5 () Int
    6750)
  (define-fun PriceProv2 () Int
    480)
  (define-fun StorageProv3 () Int
    19499)
  (define-fun VM3Type () Int
    0)
  (define-fun C4_VM2 () Int
    0)
  (define-fun C3_VM4 () Int
    1)
  (define-fun PriceProv3 () Int
    0)
  (define-fun C5_VM3 () Int
    0)
  (define-fun C3_VM1 () Int
    0)
  (define-fun C2_VM3 () Int
    0)
  (define-fun VM5Type () Int
    10)
  (define-fun PriceProv5 () Int
    480)
  (define-fun C2_VM4 () Int
    0)
  (define-fun StorageProv2 () Int
    141000)
  (define-fun StorageProv5 () Int
    141000)
  (define-fun C3_VM2 () Int
    0)
  (define-fun C5_VM2 () Int
    0)
  (define-fun C5_VM4 () Int
    0)
  (define-fun StorageProv4 () Int
    141000)
  (define-fun ProcProv1 () Int
    7201)
  (define-fun C5_VM1 () Int
    0)
  (define-fun C1_VM1 () Int
    0)
)
(objectives
 ( 4)
 ((+ 0 PriceProv1 PriceProv2 PriceProv3 PriceProv4 PriceProv5) 1440)
)
(:added-eqs                   46926
 :arith-eq-adapter            11637
 :arith-bound-propagations-lp 1207
 :arith-conflicts             10
 :arith-diseq                 44226
 :arith-fixed-eqs             249
 :arith-lower                 64294
 :arith-make-feasible         9279
 :arith-max-columns           107
 :arith-max-rows              17
 :arith-upper                 33765
 :binary-propagations         260753
 :conflicts                   1791
 :decisions                   25490
 :del-clause                  12033
 :final-checks                41
 :max-memory                  40.30
 :maxsat-cores                3
 :memory                      40.30
 :minimized-lits              8861
 :mk-bool-var                 22979
 :mk-clause                   13022
 :mk-clause-binary            2483
 :num-allocs                  11690744
 :num-checks                  41
 :pb-conflicts                790
 :pb-predicates               254
 :pb-propagations             636
 :pb-resolves                 788
 :propagations                372285
 :restarts                    13
 :rlimit-count                2403662
 :solve-eqs-elim-vars         2
 :solve-eqs-steps             16
 :time                        0.12
 :total-time                  0.13)
